
Gurobi 10.0.1 (win64) logging started Sun Aug 27 19:51:41 2023

Set parameter LogFile to value "results//log/Fattahi_setup_08_modified_old_makespan.log"
Gurobi Optimizer version 10.0.1 build v10.0.1rc0 (win64)

CPU model: AMD Ryzen 7 3700X 8-Core Processor, instruction set [SSE2|AVX|AVX2]
Thread count: 8 physical cores, 16 logical processors, using up to 16 threads

Optimize a model with 136 rows, 118 columns and 523 nonzeros
Model fingerprint: 0xc6d0ec0f
Variable types: 18 continuous, 100 integer (99 binary)
Coefficient statistics:
  Matrix range     [1e+00, 1e+06]
  Objective range  [1e+00, 1e+00]
  Bounds range     [1e+00, 1e+00]
  RHS range        [1e+00, 3e+06]
Presolve removed 27 rows and 56 columns
Presolve time: 0.00s
Presolved: 109 rows, 62 columns, 478 nonzeros
Variable types: 18 continuous, 44 integer (43 binary)
Found heuristic solution: objective 3013.0000000
Found heuristic solution: objective 2846.0000000
Found heuristic solution: objective 2692.0000000

Root relaxation: objective 2.003000e+03, 24 iterations, 0.00 seconds (0.00 work units)

    Nodes    |    Current Node    |     Objective Bounds      |     Work
 Expl Unexpl |  Obj  Depth IntInf | Incumbent    BestBd   Gap | It/Node Time

     0     0 2003.00000    0    7 2692.00000 2003.00000  25.6%     -    0s
H    0     0                    2633.0000000 2003.00000  23.9%     -    0s
     0     0 2003.00604    0    7 2633.00000 2003.00604  23.9%     -    0s
     0     0 2014.00437    0   11 2633.00000 2014.00437  23.5%     -    0s
     0     0 2022.00000    0    9 2633.00000 2022.00000  23.2%     -    0s
H    0     0                    2550.0000000 2022.00000  20.7%     -    0s
     0     0 2024.00000    0    7 2550.00000 2024.00000  20.6%     -    0s
     0     0 2026.00000    0    8 2550.00000 2026.00000  20.5%     -    0s
H    0     0                    2549.0000000 2026.00000  20.5%     -    0s
H    0     0                    2384.0000000 2026.00000  15.0%     -    0s
     0     0 2026.00000    0    9 2384.00000 2026.00000  15.0%     -    0s
     0     0 2026.00457    0    9 2384.00000 2026.00457  15.0%     -    0s
     0     0 2028.00000    0    9 2384.00000 2028.00000  14.9%     -    0s
     0     1 2028.00000    0    8 2384.00000 2028.00000  14.9%     -    0s
H    9     4                    2365.0000000 2028.00000  14.2%   5.7    0s

Cutting planes:
  Learned: 3
  Gomory: 3
  Implied bound: 7
  MIR: 6
  Flow cover: 15
  Inf proof: 2

Explored 440 nodes (1616 simplex iterations) in 0.07 seconds (0.03 work units)
Thread count was 16 (of 16 available processors)

Solution count 9: 2365 2365 2384 ... 3013

Optimal solution found (tolerance 1.00e-04)
Best objective 2.365000000000e+03, best bound 2.365000000000e+03, gap 0.0000%
Warning: constraint name "precedence between 0,1 to 0,0 if x_[j,l,h,z,i]=1" has a space
Warning: constraint name "precedence between 0,1 to 0,0 if x_[j,l,h,z,i]=1" has a space
Warning: default constraint names used to write mps file
